0 82 96
1 61 100
2 77 103
3 87 108
4 108 109
5 106 108
6 107 107
7 95 106
8 102 105
9 105 105
10 101 104
11 101 105
12 105 106
13 73 105
14 72 104
15 102 102
16 93 101
17 92 99
18 72 97
19 92 97
20 96 97
21 92 96
22 84 94
23 85 94
24 80 94
25 86 93
26 93 93
27 72 93
28 91 91
29 65 90
30 90 89
31 84 84
32 84 89
33 82 93
34 91 93
35 87 92
36 87 90
37 66 89
38 87 88
39 80 88
40 87 88
41 85 87
42 76 86
43 85 85
44 74 83
45 64 83
46 54 83
47 79 82
48 80 83
49 73 82
50 72 81
51 72 79
52 76 77
53 75 75
54 62 74
55 48 72
56 64 73
57 72 72
58 57 71
59 68 69
60 55 68
61 50 65
62 52 63
63 55 59
64 55 58
65 48 56
66 55 55
67 47 53
68 51 52
69 48 52
70 48 52
71 41 52
72 49 51
73 48 50
74 47 49
75 40 47
76 42 42
77 35 44
78 34 43
79 42 42
80 40 41
81 35 39
82 36 37
83 36 36
84 28 35
85 21 32
86 32 32
87 30 31
88 26 29
89 21 28
90 24 29
91 26 31
92 30 32
93 31 33
94 29 32
95 22 30
96 26 28
97 21 28
98 24 27
99 25 27
100 21 25
101 22 22
102 21 21
103 14 20
104 17 18
105 16 18
106 14 17
107 15 15
108 12 13
109 10 11
110 7 10
111 3 9
112 2 7
113 1 6
114 5 6
115 4 5
116 3 4
117 1 3
118 1 3
119 2 2
120 1 1

